mixintcount/benchmarks/random_v2l/4_4_1258.smt2
(set-logic QF_LIA)
(set-info :ran/ran2.smt2)
(set-info :smt-lib-version 2.0)
(declare-fun x1 () Int)
(declare-fun x2 () Int)
(declare-fun x3 () Int)
(declare-fun x4 () Int)
(assert (<= (+ (* (- 8) x1) (* (- 2) x2) (* (- 6) x3) (* 7 x4) ) 1250))
(assert (<= (+ (* 10 x1) (* 5 x2) (* (- 9) x3) (* 5 x4) ) 808))
(assert (<= (+ (* (- 3) x1) (* 4 x2) (* 3 x3) (* (- 1) x4) ) (- 636)))
(assert (<= (+ (* (- 9) x1) (* 5 x2) (* (- 5) x3) (* 0 x4) ) 578))
(assert (<= (+ (* (- 4) x1) (* 4 x2) (* (- 6) x3) (* 4 x4) ) (- 1116)))
(assert (<= (+ (* (- 7) x1) (* (- 8) x2) (* (- 6) x3) (* (- 6) x4) ) 418))
(assert (<= (+ (* 3 x1) (* (- 4) x2) (* (- 2) x3) (* 5 x4) ) 923))
(assert (<= (+ (* (- 4) x1) (* 2 x2) (* 5 x3) (* (- 3) x4) ) 1210))
(assert (<= (+ (* 1 x1) (* 0 x2) (* 0 x3) (* 0 x4) ) 1258))
(assert (<= (+ (* (- 1) x1) (* 0 x2) (* 0 x3) (* 0 x4) ) 1258))
(assert (<= (+ (* 0 x1) (* 1 x2) (* 0 x3) (* 0 x4) ) 1258))
(assert (<= (+ (* 0 x1) (* (- 1) x2) (* 0 x3) (* 0 x4) ) 1258))
(assert (<= (+ (* 0 x1) (* 0 x2) (* 1 x3) (* 0 x4) ) 1258))
(assert (<= (+ (* 0 x1) (* 0 x2) (* (- 1) x3) (* 0 x4) ) 1258))
(assert (<= (+ (* 0 x1) (* 0 x2) (* 0 x3) (* 1 x4) ) 1258))
(assert (<= (+ (* 0 x1) (* 0 x2) (* 0 x3) (* (- 1) x4) ) 1258))
