mixintcount/benchmarks/random_v2l/4_4_1258.in
16 6
#	x1	x2	x3	x4;		0 = Real; 1 = Integer
	1	1	1	1
1	-8	-2	-6	7	1250
1	10	5	-9	5	808
1	-3	4	3	-1	-636
1	-9	5	-5	0	578
1	-4	4	-6	4	-1116
1	-7	-8	-6	-6	418
1	3	-4	-2	5	923
1	-4	2	5	-3	1210
1	1	0	0	0	1258
1	-1	0	0	0	1258
1	0	1	0	0	1258
1	0	-1	0	0	1258
1	0	0	1	0	1258
1	0	0	-1	0	1258
1	0	0	0	1	1258
1	0	0	0	-1	1258
